\Problem name: 

Minimize
OBJROW: - x_7_10 - x_8_10 - x_9_10
Subject To
constr(0):  x_1_4 <= 75
constr(1):  x_1_4 >= 0
constr(2):  x_1_5 <= 65
constr(3):  x_1_5 >= 0
constr(4):  x_2_4 <= 40
constr(5):  x_2_4 >= 0
constr(6):  x_2_5 <= 50
constr(7):  x_2_5 >= 0
constr(8):  x_2_6 <= 60
constr(9):  x_2_6 >= 0
constr(10):  x_3_5 <= 80
constr(11):  x_3_5 >= 0
constr(12):  x_3_6 <= 70
constr(13):  x_3_6 >= 0
constr(14):  x_4_7 <= 60
constr(15):  x_4_7 >= 0
constr(16):  x_4_8 <= 45
constr(17):  x_4_8 >= 0
constr(18):  x_5_7 <= 70
constr(19):  x_5_7 >= 0
constr(20):  x_5_8 <= 55
constr(21):  x_5_8 >= 0
constr(22):  x_5_9 <= 45
constr(23):  x_5_9 >= 0
constr(24):  x_6_8 <= 70
constr(25):  x_6_8 >= 0
constr(26):  x_6_9 <= 90
constr(27):  x_6_9 >= 0
constr(28):  x_7_10 <= 120
constr(29):  x_7_10 >= 0
constr(30):  x_8_10 <= 190
constr(31):  x_8_10 >= 0
constr(32):  x_9_10 <= 130
constr(33):  x_9_10 >= 0
constr(34):  x_1_4 = 75
constr(35):  x_1_5 = 65
constr(36):  x_2_4 = 40
constr(37):  x_2_5 = 50
constr(38):  x_2_6 = 60
constr(39):  x_3_5 = 80
constr(40):  x_3_6 = 70
constr(41):  - x_1_4 - x_2_4 + x_4_7 + x_4_8 <= -0
constr(42):  - x_1_5 - x_2_5 - x_3_5 + x_5_7 + x_5_8 + x_5_9 <= -0
constr(43):  - x_2_6 - x_3_6 + x_6_8 + x_6_9 <= -0
constr(44):  - x_4_7 - x_5_7 + x_7_10 <= -0
constr(45):  - x_4_8 - x_5_8 - x_6_8 + x_8_10 <= -0
constr(46):  - x_5_9 - x_6_9 + x_9_10 <= -0
Bounds
Integers
x_1_4 x_1_5 x_2_4 x_2_5 x_2_6 x_3_5 x_3_6 x_4_7 x_4_8 x_5_7 
x_5_8 x_5_9 x_6_8 x_6_9 x_7_10 x_8_10 x_9_10 
End
